#######################



#######################
Set parameter TimeLimit to value 300
Set parameter SoftMemLimit to value 125
Set parameter LogFile to value 1003-MIPFocus0-Presolve1-TimeLimit300-k16x240-6.log
Set parameter Presolve to value 1
Set parameter Seed to value 6
Using license file /opt/gurobi/gurobi.lic

Gurobi Optimizer version 10.0.3 build v10.0.3rc0 (linux64)
Copyright (c) 2023, Gurobi Optimization, LLC

Read MPS format model from file /miplib2010/k16x240.mps.bz2
Reading time = 0.00 seconds
k16x240: 256 rows, 480 columns, 960 nonzeros

CPU model: Intel(R) Xeon(R) E-2388G CPU @ 3.20GHz, instruction set [SSE2|AVX|AVX2|AVX512]
Thread count: 8 physical cores, 16 logical processors, using up to 16 threads

Optimize a model with 256 rows, 480 columns and 960 nonzeros
Model fingerprint: 0x4e80885f
Variable types: 240 continuous, 240 integer (240 binary)
Coefficient statistics:
  Matrix range     [1e+00, 1e+03]
  Objective range  [1e+00, 1e+03]
  Bounds range     [1e+00, 1e+03]
  RHS range        [4e+00, 4e+02]
Found heuristic solution: objective 19315.000000
Presolve time: 0.00s
Presolved: 256 rows, 480 columns, 960 nonzeros
Variable types: 240 continuous, 240 integer (240 binary)

Root relaxation: objective 2.769838e+03, 51 iterations, 0.00 seconds (0.00 work units)

    Nodes    |    Current Node    |     Objective Bounds      |     Work
 Expl Unexpl |  Obj  Depth IntInf | Incumbent    BestBd   Gap | It/Node Time

     0     0 2769.83800    0   14 19315.0000 2769.83800  85.7%     -    0s
H    0     0                    11359.000000 2769.83800  75.6%     -    0s
H    0     0                    11195.000000 2769.83800  75.3%     -    0s
H    0     0                    11074.000000 8084.69631  27.0%     -    0s
     0     0 8084.69631    0   26 11074.0000 8084.69631  27.0%     -    0s
H    0     0                    10916.000000 8084.69631  25.9%     -    0s
     0     0 8528.16906    0   24 10916.0000 8528.16906  21.9%     -    0s
H    0     0                    10826.000000 8539.15185  21.1%     -    0s
     0     0 8539.15185    0   34 10826.0000 8539.15185  21.1%     -    0s
     0     0 8548.03675    0   29 10826.0000 8548.03675  21.0%     -    0s
H    0     0                    10779.000000 8548.03675  20.7%     -    0s
     0     0 8733.37944    0   34 10779.0000 8733.37944  19.0%     -    0s
H    0     0                    10717.000000 8733.37944  18.5%     -    0s
     0     0 8793.89382    0   28 10717.0000 8793.89382  17.9%     -    0s
     0     0 8813.47094    0   31 10717.0000 8813.47094  17.8%     -    0s
     0     0 8817.86908    0   37 10717.0000 8817.86908  17.7%     -    0s
     0     0 8895.72139    0   36 10717.0000 8895.72139  17.0%     -    0s
     0     0 8919.12870    0   38 10717.0000 8919.12870  16.8%     -    0s
     0     0 8925.54582    0   35 10717.0000 8925.54582  16.7%     -    0s
     0     0 9058.64705    0   35 10717.0000 9058.64705  15.5%     -    0s
     0     0 9070.20396    0   36 10717.0000 9070.20396  15.4%     -    0s
     0     0 9076.31077    0   35 10717.0000 9076.31077  15.3%     -    0s
     0     0 9088.74452    0   32 10717.0000 9088.74452  15.2%     -    0s
     0     0 9088.74452    0   32 10717.0000 9088.74452  15.2%     -    0s
     0     2 9088.74452    0   32 10717.0000 9088.74452  15.2%     -    0s
H   41    48                    10681.000000 9232.58716  13.6%  43.3    0s
H  627   522                    10678.000000 9326.82303  12.7%  16.6    0s
H 2730  1372                    10674.000000 9475.12711  11.2%  24.4    1s
 36228 14526     cutoff   35      10674.0000 10014.0618  6.18%  28.4    5s
 75962 21607 10563.4817   28   12 10674.0000 10171.0214  4.71%  29.8   10s
 119654 23504     cutoff   28      10674.0000 10296.3495  3.54%  30.2   15s
 166344 18236 10635.9102   43    4 10674.0000 10414.9153  2.43%  29.7   20s

Cutting planes:
  Gomory: 1
  Lift-and-project: 11
  Cover: 82
  Implied bound: 34
  MIR: 177
  Flow cover: 293
  Flow path: 44
  Inf proof: 3
  Zero half: 20
  Network: 52
  Relax-and-lift: 5

Explored 213596 nodes (5867226 simplex iterations) in 24.54 seconds (29.42 work units)
Thread count was 16 (of 16 available processors)

Solution count 10: 10674 10678 10681 ... 11359

Optimal solution found (tolerance 1.00e-04)
Best objective 1.067400000000e+04, best bound 1.067400000000e+04, gap 0.0000%
